; benchmark generated from python API
(set-info :status unknown)
(declare-fun x_months () Int)
(declare-fun x_beta () Int)
(declare-fun y_months () Int)
(declare-fun y_beta () Int)
(assert
 (<= (- 1202) x_months))
(assert
 (>= 1209 x_months))
(assert
 (let ((?x4355 (mod x_months 48)))
 (let ((?x18 ((as const (Array Int Int)) 0)))
 (let ((?x20 (store ?x18 0 31)))
 (let ((?x23 (store ?x20 1 30)))
 (let ((?x25 (store ?x23 2 31)))
 (let ((?x26 (store ?x25 3 30)))
 (let ((?x28 (store ?x26 4 31)))
 (let ((?x30 (store ?x28 5 31)))
 (let ((?x32 (store ?x30 6 30)))
 (let ((?x34 (store ?x32 7 31)))
 (let ((?x36 (store ?x34 8 30)))
 (let ((?x38 (store ?x36 9 31)))
 (let ((?x40 (store ?x38 10 31)))
 (let ((?x43 (store ?x40 11 28)))
 (let ((?x44 (store ?x43 12 31)))
 (let ((?x46 (store ?x44 13 30)))
 (let ((?x48 (store ?x46 14 31)))
 (let ((?x50 (store ?x48 15 30)))
 (let ((?x52 (store ?x50 16 31)))
 (let ((?x54 (store ?x52 17 31)))
 (let ((?x56 (store ?x54 18 30)))
 (let ((?x58 (store ?x56 19 31)))
 (let ((?x60 (store ?x58 20 30)))
 (let ((?x62 (store ?x60 21 31)))
 (let ((?x64 (store ?x62 22 31)))
 (let ((?x66 (store ?x64 23 28)))
 (let ((?x68 (store ?x66 24 31)))
 (let ((?x70 (store ?x68 25 30)))
 (let ((?x72 (store ?x70 26 31)))
 (let ((?x74 (store ?x72 27 30)))
 (let ((?x75 (store ?x74 28 31)))
 (let ((?x77 (store ?x75 29 31)))
 (let ((?x78 (store ?x77 30 30)))
 (let ((?x79 (store ?x78 31 31)))
 (let ((?x81 (store ?x79 32 30)))
 (let ((?x83 (store ?x81 33 31)))
 (let ((?x85 (store ?x83 34 31)))
 (let ((?x87 (store ?x85 35 28)))
 (let ((?x89 (store ?x87 36 31)))
 (let ((?x91 (store ?x89 37 30)))
 (let ((?x93 (store ?x91 38 31)))
 (let ((?x95 (store ?x93 39 30)))
 (let ((?x97 (store ?x95 40 31)))
 (let ((?x99 (store ?x97 41 31)))
 (let ((?x101 (store ?x99 42 30)))
 (let ((?x103 (store ?x101 43 31)))
 (let ((?x105 (store ?x103 44 30)))
 (let ((?x107 (store ?x105 45 31)))
 (let ((?x109 (store ?x107 46 31)))
 (let ((?x111 (store ?x109 47 29)))
 (let ((?x4271 (ite (or (= 22802 (+ x_months 24003)) (= 25202 (+ x_months 24003))) 28 (select ?x111 ?x4355))))
 (let (($x3510 (<= 0 x_beta)))
 (and $x3510 (< x_beta ?x4271)))))))))))))))))))))))))))))))))))))))))))))))))))))))
(assert
 (<= (- 1202) y_months))
(assert
 (>= 1209 y_months))
(assert
 (let ((?x1777 (mod y_months 48)))
 (let ((?x18 ((as const (Array Int Int)) 0)))
 (let ((?x20 (store ?x18 0 31)))
 (let ((?x23 (store ?x20 1 30)))
 (let ((?x25 (store ?x23 2 31)))
 (let ((?x26 (store ?x25 3 30)))
 (let ((?x28 (store ?x26 4 31)))
 (let ((?x30 (store ?x28 5 31)))
 (let ((?x32 (store ?x30 6 30)))
 (let ((?x34 (store ?x32 7 31)))
 (let ((?x36 (store ?x34 8 30)))
 (let ((?x38 (store ?x36 9 31)))
 (let ((?x40 (store ?x38 10 31)))
 (let ((?x43 (store ?x40 11 28)))
 (let ((?x44 (store ?x43 12 31)))
 (let ((?x46 (store ?x44 13 30)))
 (let ((?x48 (store ?x46 14 31)))
 (let ((?x50 (store ?x48 15 30)))
 (let ((?x52 (store ?x50 16 31)))
 (let ((?x54 (store ?x52 17 31)))
 (let ((?x56 (store ?x54 18 30)))
 (let ((?x58 (store ?x56 19 31)))
 (let ((?x60 (store ?x58 20 30)))
 (let ((?x62 (store ?x60 21 31)))
 (let ((?x64 (store ?x62 22 31)))
 (let ((?x66 (store ?x64 23 28)))
 (let ((?x68 (store ?x66 24 31)))
 (let ((?x70 (store ?x68 25 30)))
 (let ((?x72 (store ?x70 26 31)))
 (let ((?x74 (store ?x72 27 30)))
 (let ((?x75 (store ?x74 28 31)))
 (let ((?x77 (store ?x75 29 31)))
 (let ((?x78 (store ?x77 30 30)))
 (let ((?x79 (store ?x78 31 31)))
 (let ((?x81 (store ?x79 32 30)))
 (let ((?x83 (store ?x81 33 31)))
 (let ((?x85 (store ?x83 34 31)))
 (let ((?x87 (store ?x85 35 28)))
 (let ((?x89 (store ?x87 36 31)))
 (let ((?x91 (store ?x89 37 30)))
 (let ((?x93 (store ?x91 38 31)))
 (let ((?x95 (store ?x93 39 30)))
 (let ((?x97 (store ?x95 40 31)))
 (let ((?x99 (store ?x97 41 31)))
 (let ((?x101 (store ?x99 42 30)))
 (let ((?x103 (store ?x101 43 31)))
 (let ((?x105 (store ?x103 44 30)))
 (let ((?x107 (store ?x105 45 31)))
 (let ((?x109 (store ?x107 46 31)))
 (let ((?x111 (store ?x109 47 29)))
 (let ((?x4567 (select ?x111 ?x1777)))
 (let ((?x4211 (ite (or (= 22802 (+ y_months 24003)) (= 25202 (+ y_months 24003))) 28 ?x4567)))
 (and (<= 0 y_beta) (< y_beta ?x4211)))))))))))))))))))))))))))))))))))))))))))))))))))))))
(assert
 (and (= x_months (- (+ (* 2023 12) 1) 24003)) (= 30 x_beta)))
(assert
 (let ((?x4700 (+ x_months 3)))
 (let ((?x1201 (mod ?x4700 48)))
 (let ((?x4496 (ite (> 22803 (+ ?x4700 24003)) 1 (ite (<= 25203 (+ ?x4700 24003)) (- 1) 0))))
 (let ((?x18 ((as const (Array Int Int)) 0)))
 (let ((?x20 (store ?x18 0 31)))
 (let ((?x23 (store ?x20 1 30)))
 (let ((?x25 (store ?x23 2 31)))
 (let ((?x26 (store ?x25 3 30)))
 (let ((?x28 (store ?x26 4 31)))
 (let ((?x30 (store ?x28 5 31)))
 (let ((?x32 (store ?x30 6 30)))
 (let ((?x34 (store ?x32 7 31)))
 (let ((?x36 (store ?x34 8 30)))
 (let ((?x38 (store ?x36 9 31)))
 (let ((?x40 (store ?x38 10 31)))
 (let ((?x43 (store ?x40 11 28)))
 (let ((?x44 (store ?x43 12 31)))
 (let ((?x46 (store ?x44 13 30)))
 (let ((?x48 (store ?x46 14 31)))
 (let ((?x50 (store ?x48 15 30)))
 (let ((?x52 (store ?x50 16 31)))
 (let ((?x54 (store ?x52 17 31)))
 (let ((?x56 (store ?x54 18 30)))
 (let ((?x58 (store ?x56 19 31)))
 (let ((?x60 (store ?x58 20 30)))
 (let ((?x62 (store ?x60 21 31)))
 (let ((?x64 (store ?x62 22 31)))
 (let ((?x66 (store ?x64 23 28)))
 (let ((?x68 (store ?x66 24 31)))
 (let ((?x70 (store ?x68 25 30)))
 (let ((?x72 (store ?x70 26 31)))
 (let ((?x74 (store ?x72 27 30)))
 (let ((?x75 (store ?x74 28 31)))
 (let ((?x77 (store ?x75 29 31)))
 (let ((?x78 (store ?x77 30 30)))
 (let ((?x79 (store ?x78 31 31)))
 (let ((?x81 (store ?x79 32 30)))
 (let ((?x83 (store ?x81 33 31)))
 (let ((?x85 (store ?x83 34 31)))
 (let ((?x87 (store ?x85 35 28)))
 (let ((?x89 (store ?x87 36 31)))
 (let ((?x91 (store ?x89 37 30)))
 (let ((?x93 (store ?x91 38 31)))
 (let ((?x95 (store ?x93 39 30)))
 (let ((?x97 (store ?x95 40 31)))
 (let ((?x99 (store ?x97 41 31)))
 (let ((?x101 (store ?x99 42 30)))
 (let ((?x103 (store ?x101 43 31)))
 (let ((?x105 (store ?x103 44 30)))
 (let ((?x107 (store ?x105 45 31)))
 (let ((?x109 (store ?x107 46 31)))
 (let ((?x111 (store ?x109 47 29)))
 (let ((?x2015 (ite (or (= 22802 (+ ?x4700 24003)) (= 25202 (+ ?x4700 24003))) 28 (select ?x111 ?x1201))))
 (let ((?x3785 (- ?x2015 1)))
 (let ((?x117 (store (store (store (store ?x18 0 0) 1 31) 2 61) 3 92)))
 (let ((?x125 (store (store (store (store ?x117 4 122) 5 153) 6 184) 7 214)))
 (let ((?x133 (store (store (store (store ?x125 8 245) 9 275) 10 306) 11 337)))
 (let ((?x141 (store (store (store (store ?x133 12 365) 13 396) 14 426) 15 457)))
 (let ((?x149 (store (store (store (store ?x141 16 487) 17 518) 18 549) 19 579)))
 (let ((?x157 (store (store (store (store ?x149 20 610) 21 640) 22 671) 23 702)))
 (let ((?x165 (store (store (store (store ?x157 24 730) 25 761) 26 791) 27 822)))
 (let ((?x173 (store (store (store (store ?x165 28 852) 29 883) 30 914) 31 944)))
 (let ((?x181 (store (store (store (store ?x173 32 975) 33 1005) 34 1036) 35 1067)))
 (let ((?x189 (store (store (store (store ?x181 36 1095) 37 1126) 38 1156) 39 1187)))
 (let ((?x197 (store (store (store (store ?x189 40 1217) 41 1248) 42 1279) 43 1309)))
 (let ((?x205 (store (store (store (store ?x197 44 1340) 45 1370) 46 1401) 47 1432)))
 (let ((?x2655 (+ (select ?x205 ?x1201) (ite (> 0 x_beta) 0 (ite (> x_beta ?x3785) ?x3785 x_beta)))))
 (let ((?x4400 (+ (+ ?x2655 ?x4496) 0)))
 (let ((?x630 (+ ?x4700 (* (div ?x4400 1461) 48))))
 (let ((?x427 (+ (+ ?x630 (- 1 ?x1201)) 24003)))
 (let ((?x1135 (+ (select ?x205 1) (ite (> 22803 ?x427) 1 (ite (<= 25203 ?x427) (- 1) 0)))))
 (let ((?x1994 (mod ?x4400 1461)))
 (let ((?x3650 (ite (> 22803 (+ (+ ?x630 (- 2 ?x1201)) 24003)) 1 (ite (<= 25203 (+ (+ ?x630 (- 2 ?x1201)) 24003)) (- 1) 0))))
 (let ((?x3196 (ite (>= ?x1994 (+ (select ?x205 2) ?x3650)) 2 (ite (>= ?x1994 ?x1135) 1 0))))
 (let ((?x4224 (ite (> 22803 (+ (+ ?x630 (- 3 ?x1201)) 24003)) 1 (ite (<= 25203 (+ (+ ?x630 (- 3 ?x1201)) 24003)) (- 1) 0))))
 (let ((?x4584 (ite (> 22803 (+ (+ ?x630 (- 4 ?x1201)) 24003)) 1 (ite (<= 25203 (+ (+ ?x630 (- 4 ?x1201)) 24003)) (- 1) 0))))
 (let ((?x3106 (ite (>= ?x1994 (+ (select ?x205 4) ?x4584)) 4 (ite (>= ?x1994 (+ (select ?x205 3) ?x4224)) 3 ?x3196))))
 (let ((?x3248 (ite (> 22803 (+ (+ ?x630 (- 5 ?x1201)) 24003)) 1 (ite (<= 25203 (+ (+ ?x630 (- 5 ?x1201)) 24003)) (- 1) 0))))
 (let ((?x1809 (ite (> 22803 (+ (+ ?x630 (- 6 ?x1201)) 24003)) 1 (ite (<= 25203 (+ (+ ?x630 (- 6 ?x1201)) 24003)) (- 1) 0))))
 (let ((?x2359 (ite (>= ?x1994 (+ (select ?x205 6) ?x1809)) 6 (ite (>= ?x1994 (+ (select ?x205 5) ?x3248)) 5 ?x3106))))
 (let ((?x4792 (ite (> 22803 (+ (+ ?x630 (- 7 ?x1201)) 24003)) 1 (ite (<= 25203 (+ (+ ?x630 (- 7 ?x1201)) 24003)) (- 1) 0))))
 (let ((?x3621 (ite (> 22803 (+ (+ ?x630 (- 8 ?x1201)) 24003)) 1 (ite (<= 25203 (+ (+ ?x630 (- 8 ?x1201)) 24003)) (- 1) 0))))
 (let ((?x4434 (ite (>= ?x1994 (+ (select ?x205 8) ?x3621)) 8 (ite (>= ?x1994 (+ (select ?x205 7) ?x4792)) 7 ?x2359))))
 (let ((?x1458 (ite (> 22803 (+ (+ ?x630 (- 9 ?x1201)) 24003)) 1 (ite (<= 25203 (+ (+ ?x630 (- 9 ?x1201)) 24003)) (- 1) 0))))
 (let ((?x4124 (ite (> 22803 (+ (+ ?x630 (- 10 ?x1201)) 24003)) 1 (ite (<= 25203 (+ (+ ?x630 (- 10 ?x1201)) 24003)) (- 1) 0))))
 (let ((?x4257 (ite (>= ?x1994 (+ (select ?x205 10) ?x4124)) 10 (ite (>= ?x1994 (+ (select ?x205 9) ?x1458)) 9 ?x4434))))
 (let ((?x1284 (ite (> 22803 (+ (+ ?x630 (- 11 ?x1201)) 24003)) 1 (ite (<= 25203 (+ (+ ?x630 (- 11 ?x1201)) 24003)) (- 1) 0))))
 (let ((?x4495 (ite (> 22803 (+ (+ ?x630 (- 12 ?x1201)) 24003)) 1 (ite (<= 25203 (+ (+ ?x630 (- 12 ?x1201)) 24003)) (- 1) 0))))
 (let ((?x3173 (ite (>= ?x1994 (+ (select ?x205 12) ?x4495)) 12 (ite (>= ?x1994 (+ (select ?x205 11) ?x1284)) 11 ?x4257))))
 (let ((?x1789 (ite (> 22803 (+ (+ ?x630 (- 13 ?x1201)) 24003)) 1 (ite (<= 25203 (+ (+ ?x630 (- 13 ?x1201)) 24003)) (- 1) 0))))
 (let ((?x1896 (ite (> 22803 (+ (+ ?x630 (- 14 ?x1201)) 24003)) 1 (ite (<= 25203 (+ (+ ?x630 (- 14 ?x1201)) 24003)) (- 1) 0))))
 (let ((?x1554 (ite (>= ?x1994 (+ (select ?x205 14) ?x1896)) 14 (ite (>= ?x1994 (+ (select ?x205 13) ?x1789)) 13 ?x3173))))
 (let ((?x1665 (ite (> 22803 (+ (+ ?x630 (- 15 ?x1201)) 24003)) 1 (ite (<= 25203 (+ (+ ?x630 (- 15 ?x1201)) 24003)) (- 1) 0))))
 (let ((?x2136 (ite (> 22803 (+ (+ ?x630 (- 16 ?x1201)) 24003)) 1 (ite (<= 25203 (+ (+ ?x630 (- 16 ?x1201)) 24003)) (- 1) 0))))
 (let ((?x4797 (ite (>= ?x1994 (+ (select ?x205 16) ?x2136)) 16 (ite (>= ?x1994 (+ (select ?x205 15) ?x1665)) 15 ?x1554))))
 (let ((?x6149 (ite (> 22803 (+ (+ ?x630 (- 17 ?x1201)) 24003)) 1 (ite (<= 25203 (+ (+ ?x630 (- 17 ?x1201)) 24003)) (- 1) 0))))
 (let ((?x4303 (ite (> 22803 (+ (+ ?x630 (- 18 ?x1201)) 24003)) 1 (ite (<= 25203 (+ (+ ?x630 (- 18 ?x1201)) 24003)) (- 1) 0))))
 (let ((?x4000 (ite (>= ?x1994 (+ (select ?x205 18) ?x4303)) 18 (ite (>= ?x1994 (+ (select ?x205 17) ?x6149)) 17 ?x4797))))
 (let ((?x1275 (ite (> 22803 (+ (+ ?x630 (- 19 ?x1201)) 24003)) 1 (ite (<= 25203 (+ (+ ?x630 (- 19 ?x1201)) 24003)) (- 1) 0))))
 (let ((?x4669 (ite (> 22803 (+ (+ ?x630 (- 20 ?x1201)) 24003)) 1 (ite (<= 25203 (+ (+ ?x630 (- 20 ?x1201)) 24003)) (- 1) 0))))
 (let ((?x4372 (ite (>= ?x1994 (+ (select ?x205 20) ?x4669)) 20 (ite (>= ?x1994 (+ (select ?x205 19) ?x1275)) 19 ?x4000))))
 (let ((?x1013 (ite (> 22803 (+ (+ ?x630 (- 21 ?x1201)) 24003)) 1 (ite (<= 25203 (+ (+ ?x630 (- 21 ?x1201)) 24003)) (- 1) 0))))
 (let ((?x3908 (ite (> 22803 (+ (+ ?x630 (- 22 ?x1201)) 24003)) 1 (ite (<= 25203 (+ (+ ?x630 (- 22 ?x1201)) 24003)) (- 1) 0))))
 (let ((?x2350 (ite (>= ?x1994 (+ (select ?x205 22) ?x3908)) 22 (ite (>= ?x1994 (+ (select ?x205 21) ?x1013)) 21 ?x4372))))
 (let ((?x2870 (ite (> 22803 (+ (+ ?x630 (- 23 ?x1201)) 24003)) 1 (ite (<= 25203 (+ (+ ?x630 (- 23 ?x1201)) 24003)) (- 1) 0))))
 (let ((?x1866 (ite (> 22803 (+ (+ ?x630 (- 24 ?x1201)) 24003)) 1 (ite (<= 25203 (+ (+ ?x630 (- 24 ?x1201)) 24003)) (- 1) 0))))
 (let ((?x3393 (ite (>= ?x1994 (+ (select ?x205 24) ?x1866)) 24 (ite (>= ?x1994 (+ (select ?x205 23) ?x2870)) 23 ?x2350))))
 (let ((?x4983 (ite (> 22803 (+ (+ ?x630 (- 25 ?x1201)) 24003)) 1 (ite (<= 25203 (+ (+ ?x630 (- 25 ?x1201)) 24003)) (- 1) 0))))
 (let ((?x5215 (ite (> 22803 (+ (+ ?x630 (- 26 ?x1201)) 24003)) 1 (ite (<= 25203 (+ (+ ?x630 (- 26 ?x1201)) 24003)) (- 1) 0))))
 (let ((?x3624 (ite (>= ?x1994 (+ (select ?x205 26) ?x5215)) 26 (ite (>= ?x1994 (+ (select ?x205 25) ?x4983)) 25 ?x3393))))
 (let ((?x4541 (ite (> 22803 (+ (+ ?x630 (- 27 ?x1201)) 24003)) 1 (ite (<= 25203 (+ (+ ?x630 (- 27 ?x1201)) 24003)) (- 1) 0))))
 (let ((?x5243 (ite (> 22803 (+ (+ ?x630 (- 28 ?x1201)) 24003)) 1 (ite (<= 25203 (+ (+ ?x630 (- 28 ?x1201)) 24003)) (- 1) 0))))
 (let ((?x2315 (ite (>= ?x1994 (+ (select ?x205 28) ?x5243)) 28 (ite (>= ?x1994 (+ (select ?x205 27) ?x4541)) 27 ?x3624))))
 (let ((?x1099 (ite (> 22803 (+ (+ ?x630 (- 29 ?x1201)) 24003)) 1 (ite (<= 25203 (+ (+ ?x630 (- 29 ?x1201)) 24003)) (- 1) 0))))
 (let ((?x4240 (ite (> 22803 (+ (+ ?x630 (- 30 ?x1201)) 24003)) 1 (ite (<= 25203 (+ (+ ?x630 (- 30 ?x1201)) 24003)) (- 1) 0))))
 (let ((?x4847 (ite (>= ?x1994 (+ (select ?x205 30) ?x4240)) 30 (ite (>= ?x1994 (+ (select ?x205 29) ?x1099)) 29 ?x2315))))
 (let ((?x4738 (ite (> 22803 (+ (+ ?x630 (- 31 ?x1201)) 24003)) 1 (ite (<= 25203 (+ (+ ?x630 (- 31 ?x1201)) 24003)) (- 1) 0))))
 (let ((?x4925 (ite (> 22803 (+ (+ ?x630 (- 32 ?x1201)) 24003)) 1 (ite (<= 25203 (+ (+ ?x630 (- 32 ?x1201)) 24003)) (- 1) 0))))
 (let ((?x5622 (ite (>= ?x1994 (+ (select ?x205 32) ?x4925)) 32 (ite (>= ?x1994 (+ (select ?x205 31) ?x4738)) 31 ?x4847))))
 (let ((?x1690 (ite (> 22803 (+ (+ ?x630 (- 33 ?x1201)) 24003)) 1 (ite (<= 25203 (+ (+ ?x630 (- 33 ?x1201)) 24003)) (- 1) 0))))
 (let ((?x5800 (ite (> 22803 (+ (+ ?x630 (- 34 ?x1201)) 24003)) 1 (ite (<= 25203 (+ (+ ?x630 (- 34 ?x1201)) 24003)) (- 1) 0))))
 (let ((?x4228 (ite (>= ?x1994 (+ (select ?x205 34) ?x5800)) 34 (ite (>= ?x1994 (+ (select ?x205 33) ?x1690)) 33 ?x5622))))
 (let ((?x5798 (ite (> 22803 (+ (+ ?x630 (- 35 ?x1201)) 24003)) 1 (ite (<= 25203 (+ (+ ?x630 (- 35 ?x1201)) 24003)) (- 1) 0))))
 (let ((?x6082 (ite (> 22803 (+ (+ ?x630 (- 36 ?x1201)) 24003)) 1 (ite (<= 25203 (+ (+ ?x630 (- 36 ?x1201)) 24003)) (- 1) 0))))
 (let ((?x6086 (ite (>= ?x1994 (+ (select ?x205 36) ?x6082)) 36 (ite (>= ?x1994 (+ (select ?x205 35) ?x5798)) 35 ?x4228))))
 (let ((?x1416 (ite (> 22803 (+ (+ ?x630 (- 37 ?x1201)) 24003)) 1 (ite (<= 25203 (+ (+ ?x630 (- 37 ?x1201)) 24003)) (- 1) 0))))
 (let ((?x6069 (ite (> 22803 (+ (+ ?x630 (- 38 ?x1201)) 24003)) 1 (ite (<= 25203 (+ (+ ?x630 (- 38 ?x1201)) 24003)) (- 1) 0))))
 (let ((?x6073 (ite (>= ?x1994 (+ (select ?x205 38) ?x6069)) 38 (ite (>= ?x1994 (+ (select ?x205 37) ?x1416)) 37 ?x6086))))
 (let ((?x6059 (ite (> 22803 (+ (+ ?x630 (- 39 ?x1201)) 24003)) 1 (ite (<= 25203 (+ (+ ?x630 (- 39 ?x1201)) 24003)) (- 1) 0))))
 (let ((?x2430 (ite (> 22803 (+ (+ ?x630 (- 40 ?x1201)) 24003)) 1 (ite (<= 25203 (+ (+ ?x630 (- 40 ?x1201)) 24003)) (- 1) 0))))
 (let ((?x4344 (ite (>= ?x1994 (+ (select ?x205 40) ?x2430)) 40 (ite (>= ?x1994 (+ (select ?x205 39) ?x6059)) 39 ?x6073))))
 (let ((?x1962 (ite (> 22803 (+ (+ ?x630 (- 41 ?x1201)) 24003)) 1 (ite (<= 25203 (+ (+ ?x630 (- 41 ?x1201)) 24003)) (- 1) 0))))
 (let ((?x5190 (ite (> 22803 (+ (+ ?x630 (- 42 ?x1201)) 24003)) 1 (ite (<= 25203 (+ (+ ?x630 (- 42 ?x1201)) 24003)) (- 1) 0))))
 (let ((?x595 (ite (>= ?x1994 (+ (select ?x205 42) ?x5190)) 42 (ite (>= ?x1994 (+ (select ?x205 41) ?x1962)) 41 ?x4344))))
 (let ((?x5576 (ite (> 22803 (+ (+ ?x630 (- 43 ?x1201)) 24003)) 1 (ite (<= 25203 (+ (+ ?x630 (- 43 ?x1201)) 24003)) (- 1) 0))))
 (let ((?x1619 (ite (> 22803 (+ (+ ?x630 (- 44 ?x1201)) 24003)) 1 (ite (<= 25203 (+ (+ ?x630 (- 44 ?x1201)) 24003)) (- 1) 0))))
 (let ((?x3560 (ite (>= ?x1994 (+ (select ?x205 44) ?x1619)) 44 (ite (>= ?x1994 (+ (select ?x205 43) ?x5576)) 43 ?x595))))
 (let ((?x3730 (ite (> 22803 (+ (+ ?x630 (- 45 ?x1201)) 24003)) 1 (ite (<= 25203 (+ (+ ?x630 (- 45 ?x1201)) 24003)) (- 1) 0))))
 (let ((?x1181 (ite (> 22803 (+ (+ ?x630 (- 46 ?x1201)) 24003)) 1 (ite (<= 25203 (+ (+ ?x630 (- 46 ?x1201)) 24003)) (- 1) 0))))
 (let ((?x4451 (ite (>= ?x1994 (+ (select ?x205 46) ?x1181)) 46 (ite (>= ?x1994 (+ (select ?x205 45) ?x3730)) 45 ?x3560))))
 (let ((?x4206 (ite (> 22803 (+ (+ ?x630 (- 47 ?x1201)) 24003)) 1 (ite (<= 25203 (+ (+ ?x630 (- 47 ?x1201)) 24003)) (- 1) 0))))
 (let ((?x4631 (ite (>= ?x1994 (+ (select ?x205 47) ?x4206)) 47 ?x4451)))
 (let ((?x3209 (+ ?x630 (- ?x4631 ?x1201))))
 (let ((?x3628 (+ ?x3209 24003)))
 (let ((?x2098 (+ (select ?x205 ?x4631) (ite (> 22803 ?x3628) 1 (ite (<= 25203 ?x3628) (- 1) 0)))))
 (let ((?x4348 (- ?x1994 ?x2098)))
 (let ((?x2576 (ite (or (= 22802 ?x3628) (= 25202 ?x3628)) 28 (select ?x111 ?x4631))))
 (let (($x4562 (= y_beta (ite (= 1 (ite (>= ?x4348 ?x2576) 1 0)) (- ?x4348 ?x2576) ?x4348))))
 (and (= y_months (+ ?x3209 (ite (>= ?x4348 ?x2576) 1 0))) $x4562))))))))))))))))))))))))))))))))))))))))))))))))))))))))))))))))))))))))))))))))))))))))))))))))))))))))))))))))))))))))))))))))))))))))))))))))))))))
(assert
 (and (= y_months (- (+ (* 2023 12) 4) 24003)) (= 29 y_beta)))
(check-sat)
